unsat
(:max-memory          18.33
 :memory              18.33
 :num-allocs          34168
 :rlimit-count        429
 :solve-eqs-elim-vars 1
 :solve-eqs-steps     1
 :time                0.00
 :total-time          0.01)
